GCG version 3.0.0 [GitHash: 70e7382]
Copyright (C) 2010-2018 Operations Research, RWTH Aachen University
                        Konrad-Zuse-Zentrum fuer Informationstechnik Berlin (ZIB)

SCIP version 6.0.0 [precision: 8 byte] [memory: block] [mode: optimized] [LP solver: SoPlex 4.0.0] [GitHash: 77d3bc8]
Copyright (C) 2002-2018 Konrad-Zuse-Zentrum fuer Informationstechnik Berlin (ZIB)

External codes: 
  Readline 6.0         GNU library for command line editing (gnu.org/s/readline)
  SoPlex 4.0.0         Linear Programming Solver developed at Zuse Institute Berlin (soplex.zib.de) [GitHash: 82cab95]
  CppAD 20180000.0     Algorithmic Differentiation of C++ algorithms developed by B. Bell (www.coin-or.org/CppAD)
  ZLIB 1.2.3           General purpose compression library by J. Gailly and M. Adler (zlib.net)
  ZIMPL 3.3.6          Zuse Institute Mathematical Programming Language developed by T. Koch (zimpl.zib.de)
  bliss 0.73           A Tool for Computing Automorphism Groups of Graphs by T. Junttila and P. Kaski (http://www.tcs.hut.fi/Software/bliss/)

reading user parameter file </LOG_DATA/scripts/options_gcg.parm>

read problem </ORDATA/miplib/z30_70_4_5_0_95_100.mps>
============

original problem has 10976 variables (10975 bin, 0 int, 0 impl, 1 cont) and 12526 constraints
feasible solution found by trivial heuristic after 0.0 seconds, objective value 1.961100e+04
presolving:
(round 1, exhaustive) 2 del vars, 2 del conss, 0 add conss, 0 chg bounds, 0 chg sides, 0 chg coeffs, 12431 upgd conss, 0 impls, 10464 clqs
(round 2, medium)     5 del vars, 7 del conss, 2 add conss, 0 chg bounds, 5 chg sides, 8 chg coeffs, 12431 upgd conss, 0 impls, 10462 clqs
(round 3, exhaustive) 5 del vars, 7 del conss, 2 add conss, 0 chg bounds, 5 chg sides, 8 chg coeffs, 12524 upgd conss, 0 impls, 10462 clqs
(round 4, medium)     14 del vars, 19 del conss, 2 add conss, 0 chg bounds, 5 chg sides, 8 chg coeffs, 12524 upgd conss, 0 impls, 10450 clqs
(round 5, exhaustive) 15 del vars, 24 del conss, 6 add conss, 0 chg bounds, 5 chg sides, 8 chg coeffs, 12528 upgd conss, 0 impls, 10453 clqs
   (2.3s) probing: 1000/10960 (9.1%) - 0 fixings, 0 aggregations, 1972 implications, 0 bound changes
   (2.3s) probing: 1001/10960 (9.1%) - 0 fixings, 0 aggregations, 1974 implications, 0 bound changes
   (2.3s) probing aborted: 1000/1000 successive useless probings
presolving (6 rounds: 6 fast, 6 medium, 4 exhaustive):
 16 deleted vars, 24 deleted constraints, 6 added constraints, 0 tightened bounds, 0 added holes, 5 changed sides, 8 changed coefficients
 0 implications, 12424 cliques
presolved problem has 10960 variables (10960 bin, 0 int, 0 impl, 0 cont) and 12508 constraints
   2041 constraints of type <knapsack>
  10449 constraints of type <setppc>
     18 constraints of type <logicor>
transformed objective value is always integral (scale: 1)
Presolving Time: 2.34
start creating seeedpool for current problem 
created seeedpool for current problem, n detectors: 26 
 Consclassifier "nonzeros" yields a classification with 24  different constraint classes 
 Consclassifier "constypes" yields a classification with 3 different constraint classes 
 Consclassifier "constypes according to miplib" yields a classification with 5 different constraint classes 
 Varclassifier "vartypes" yields a classification with 1 different variable classes
 Varclassifier "varobjvals" yields a classification with 4 different variable classes
 Varclassifier "varobjvalsigns" yields a classification with 1 different variable classes
 Varclassifier "varobjvalsigns" is not considered since it offers the same structure as "vartypes"
 the current consclass distribution includes 24 classes but only 18 are allowed for calcCandidatesNBlocks()
Begin of detection round 0 of 1 total rounds 
Start to propagate seeed with id 1 (0 of 1 in round 0) 
 in dec_consclass: there are 3 different constraint classes   
 the current consclass distribution includes 24 classes but only 9 are allowed for propagateSeeed() of cons class detector
  the current constraint classifier "constypes" consists of 3 different classes   
  the current constraint classifier "constypes according to miplib" consists of 5 different classes   
 dec_consclass found 38 new seeeds 
dec_densemasterconss found 1 new seeed 
Start finishing of partial decomposition 1.
Measured running time per detector: 
Detector consclass                 	 worked on 	 30 of 46	 and took a total time of 	1.57796
Detector densemasterconss          	 worked on 	 1 of 46	 and took a total time of 	0.00219
Detector hrgpartition              	 worked on 	 0 of 46	 and took a total time of 	3e-06
Detector varclass                  	 worked on 	 14 of 46	 and took a total time of 	0.405155
Started postprocessing of decompositions...
...finished postprocessing of decompositions. Added 0 new decomps. 

solve problem
=============


A Dantzig-Wolfe reformulation is applied to solve the original problem.

  time | node  | left  |SLP iter|MLP iter|LP it/n| mem |mdpt |mvars|ocons|mcons|mcuts|sepa|  dualbound   | primalbound  |  deg   |  gap   
t  2.4s|     1 |     0 |      0 |      0 |     - |  53M|   0 |   0 |  12k|   0 |   0 |  0 |-6.132000e+03 | 1.960000e+04 |   --   |    Inf 
V  2.5s|     1 |     0 |      0 |      0 |     - |  70M|   0 |   0 |  12k|   0 |   0 |  0 |-6.132000e+03 | 6.760000e+02 |   --   |    Inf 
  14.0s|     1 |     0 |      0 |      0 |     - |  68M|   0 |   0 |  12k|   0 |   0 |  0 | 3.000000e+00 | 6.760000e+02 |   --   |  Large 
Chosen structure has 477 blocks, 1 master-only (static) variables, and 2041 linking constraints.
This decomposition has a maxwhite score of 0.833976.
